c User generated cnf file
p cnf 11 51
11 -7 5 0 
3 10 -3 0 
4 4 -3 0 
-6 7 5 0 
-7 7 10 0 
11 3 -2 0 
8 8 -8 0 
4 -1 3 0 
10 -1 9 0 
10 -3 1 0 
8 -7 2 0 
1 -10 1 0 
10 -9 2 0 
1 -7 8 0 
10 -11 11 0 
7 -8 10 0 
-4 11 11 0 
6 -11 10 0 
1 6 -7 0 
-4 2 3 0 
11 9 -8 0 
3 -1 5 0 
9 -9 1 0 
6 10 -2 0 
11 9 -6 0 
3 -5 7 0 
4 4 -1 0 
-8 8 10 0 
11 -5 11 0 
3 -3 6 0 
9 6 -5 0 
9 -3 3 0 
4 10 -7 0 
-2 11 1 0 
7 7 -1 0 
4 -1 11 0 
-4 3 6 0 
8 4 -2 0 
3 6 -11 0 
-9 8 8 0 
1 7 -5 0 
1 9 -10 0 
2 10 -10 0 
6 -1 10 0 
-1 2 1 0 
7 6 -6 0 
4 -2 6 0 
-7 4 8 0 
4 10 -4 0 
-9 10 4 0 
4 -3 8 0 
